(set-info :smt-lib-version 2.7)
(set-logic ALL)
(set-info :source |
Generated on: 2026-06-22
Generator: pog2smtlib-2.7 github.com/CLEARSY/pog2smtlib-2.7 (-l HO_ALL -rpX)
Application: Discharging a proof obligation generated by aTelierB from an anonymized B machine
Target solver: CVC5 (--mbqi --enum-inst)
Time limit: 1200.0
|)
(set-info :license "www.gnu.org/licenses/gpl-3.0.en.html")
(set-info :category "industrial")
(set-info :status unknown)

(declare-datatype |s14| ((s15)(s16)))
(declare-sort P 1)
(declare-datatype C (par (T1 T2) ((maplet (fst T1) (snd T2)))))
(define-sort |Z| () Int)
(define-sort |POW s14| () (P |s14|))
(define-sort |(s14 x Z)| () (C |s14| |Z|))
(define-sort |POW Z| () (P |Z|))
(declare-fun |set.in s14| (|s14| |POW s14|) Bool)
(define-sort |POW (s14 x Z)| () (P |(s14 x Z)|))
(declare-fun |set.in Z| (|Z| |POW Z|) Bool)
(define-sort |BOOL| () Bool)
(declare-datatype |s42| ((s43)(s44)(s45)(s46)(s47)(s48)))
(declare-fun |set.in (s14 x Z)| (|(s14 x Z)| |POW (s14 x Z)|) Bool)
(define-sort |POW POW (s14 x Z)| () (P |POW (s14 x Z)|))
(define-sort |POW BOOL| () (P |BOOL|))
(define-sort |(s14 x BOOL)| () (C |s14| |BOOL|))
(define-sort |POW s42| () (P |s42|))
(define-sort |(s14 x s42)| () (C |s14| |s42|))
(declare-fun |set.subseteq (s14 x Z)| (|POW (s14 x Z)| |POW (s14 x Z)|) Bool)
(assert (!
    (forall ((s |POW (s14 x Z)|) (t |POW (s14 x Z)|))
      (=
        (|set.subseteq (s14 x Z)| s t)
        (forall ((e |(s14 x Z)|)) (=> (|set.in (s14 x Z)| e s) (|set.in (s14 x Z)| e t)))
      )
    )
    :named |ax.set.subseteq (s14 x Z)|))
(declare-fun |set.in POW (s14 x Z)| (|POW (s14 x Z)| |POW POW (s14 x Z)|) Bool)
(declare-fun |set.in BOOL| (|BOOL| |POW BOOL|) Bool)
(define-sort |POW (s14 x BOOL)| () (P |(s14 x BOOL)|))
(declare-fun |set.in s42| (|s42| |POW s42|) Bool)
(define-sort |POW (s14 x s42)| () (P |(s14 x s42)|))
(declare-fun |sub-sets (s14 x Z)| (|POW (s14 x Z)|) |POW POW (s14 x Z)|)
(assert (!
  (forall ((s |POW (s14 x Z)|) (t |POW (s14 x Z)|))
    (=
      (|set.in POW (s14 x Z)| s (|sub-sets (s14 x Z)| t))
      (|set.subseteq (s14 x Z)| s t)))
  :named |ax.sub-sets (s14 x Z)|))
(declare-fun |set.product s14 Z| (|POW s14| |POW Z|) |POW (s14 x Z)|)
(assert (!
  (forall ((s1 |POW s14|) (s2 |POW Z|))
    (forall ((p |(s14 x Z)|))
      (= (|set.in (s14 x Z)| p (|set.product s14 Z| s1 s2))
        (and (|set.in s14| (fst p) s1) (|set.in Z| (snd p) s2)))))
  :named |ax.set.in.product.1 (s14 x Z)|))
(assert (!
  (forall ((s1 |POW s14|) (s2 |POW Z|))
    (forall ((x1 |s14|) (x2 |Z|))
      (= (|set.in (s14 x Z)| (maplet x1 x2) (|set.product s14 Z| s1 s2))
        (and (|set.in s14| x1 s1) (|set.in Z| x2 s2)))))
  :named |ax.set.in.product.2 (s14 x Z)|))
(define-const MAXINT |Z| 2147483647)
(declare-fun |set.in (s14 x BOOL)| (|(s14 x BOOL)| |POW (s14 x BOOL)|) Bool)
(declare-fun |set.in (s14 x s42)| (|(s14 x s42)| |POW (s14 x s42)|) Bool)
(declare-fun |relations s14 Z| (|POW s14| |POW Z|) |POW POW (s14 x Z)|)
(assert (!
  (forall ((X |POW s14|) (Y |POW Z|))
    (= (|relations s14 Z| X Y)
       (|sub-sets (s14 x Z)| (|set.product s14 Z| X Y))))
    :named |def.relations (s14 x Z)|))
(declare-fun |functions s14 Z| (|POW s14| |POW Z|) |POW POW (s14 x Z)|)
(assert (!
  (forall ((X |POW s14|) (Y |POW Z|))
    (forall ((f |POW (s14 x Z)|))
      (= (|set.in POW (s14 x Z)| f (|functions s14 Z| X Y))
         (forall ((p |(s14 x Z)|) (q |(s14 x Z)|))
           (=> (and (|set.in (s14 x Z)| p f) (|set.in (s14 x Z)| q f) (= (fst p) (fst q)))
               (= (snd p) (snd q)))))))
:named |ax:set.in.functions (s14 x Z)|))
(declare-const s120 |Z|)
(declare-const s171 |s14|)
(declare-const s122 |Z|)
(declare-const s273 |s42|)
(declare-const s123 |Z|)
(declare-const s124 |Z|)
(declare-const s117 |Z|)
(declare-const s251 |POW (s14 x s42)|)
(declare-const s104 |Z|)
(declare-const s119 |Z|)
(declare-const s121 |Z|)
(declare-const s250 |POW (s14 x BOOL)|)
(declare-const s262 |POW (s14 x Z)|)
(declare-const s111 |Z|)
(declare-const s114 |Z|)
(declare-const s106 |Z|)
(declare-const s109 |Z|)
(declare-const s107 |Z|)
(declare-const s110 |Z|)
(declare-const s112 |Z|)
(declare-const s115 |Z|)
(declare-const s118 |Z|)
(declare-const s113 |Z|)
(declare-const s116 |Z|)
(declare-const s128 |Z|)
(declare-const NAT |POW Z|)
(assert (!
  (forall ((e |Z|)) (= (|set.in Z| e NAT) (and (<= 0 e) (<= e MAXINT))))
  :named |ax.set.in.NAT|))
(declare-fun |interval| (|Z| |Z|) |POW Z|)
 (assert (!
    (forall ((l |Z|) (u |Z|) (e |Z|))
        (= (|set.in Z| e (|interval| l u))
            (and (<= l e) (<= e u))))
    :named |ax.set.in.interval|))
(declare-fun |fun.eval s14 Z| (|POW (s14 x Z)| |s14|) |Z|)
 (assert (!
    (forall ((f |POW (s14 x Z)|)(x |s14|))
        (|set.in (s14 x Z)| (maplet x (|fun.eval s14 Z| f x)) f))
    :named |ax.fun.eval (s14 x Z)|))
(declare-fun |fun.eval s14 BOOL| (|POW (s14 x BOOL)| |s14|) |BOOL|)
 (assert (!
    (forall ((f |POW (s14 x BOOL)|)(x |s14|))
        (|set.in (s14 x BOOL)| (maplet x (|fun.eval s14 BOOL| f x)) f))
    :named |ax.fun.eval (s14 x BOOL)|))
(declare-fun |fun.eval s14 s42| (|POW (s14 x s42)| |s14|) |s42|)
 (assert (!
    (forall ((f |POW (s14 x s42)|)(x |s14|))
        (|set.in (s14 x s42)| (maplet x (|fun.eval s14 s42| f x)) f))
    :named |ax.fun.eval (s14 x s42)|))
(declare-fun |rel.domain s14 Z| (|POW (s14 x Z)|) |POW s14|)
(assert (!
  (forall ((r |POW (s14 x Z)|) (e |s14|))
    (= (|set.in s14| e (|rel.domain s14 Z| r))
       (exists ((y |Z|)) (|set.in (s14 x Z)| (maplet e y) r))))
  :named |ax:set.in.domain (s14 x Z)|))
(declare-fun |rel.range s14 Z| (|POW (s14 x Z)|) |POW Z|)
(assert (!
  (forall ((r |POW (s14 x Z)|) (e |Z|))
    (= (|set.in Z| e (|rel.range s14 Z| r))
       (exists ((x |s14|)) (|set.in (s14 x Z)| (maplet x e) r))))
  :named |ax:set.in.range (s14 x Z)|))
(declare-fun |functions.partial s14 Z| (|POW s14| |POW Z|) |POW POW (s14 x Z)|)
(assert (!
  (forall ((e1 |POW s14|) (e2 |POW Z|))
    (forall ((f |POW (s14 x Z)|))
      (= (|set.in POW (s14 x Z)| f (|functions.partial s14 Z| e1 e2))
         (and (|set.in POW (s14 x Z)| f (|relations s14 Z| e1 e2))
              (|set.in POW (s14 x Z)| f (|functions s14 Z| e1 e2))))))
  :named |ax:def.pfun (s14 x Z)|)
)
(declare-const NAT1 |POW Z|)
(assert (!
  (forall ((e |Z|)) (= (|set.in Z| e NAT1) (and (<= 1 e) (<= e MAXINT))))
  :named |ax.set.in.NAT1|))
(assert (!
  (not
  (or
    (not
      (= (|fun.eval s14 BOOL| s250 s171) true))
    (not
      (= s273 (|fun.eval s14 s42| s251 s171)))))
  :named |Local_Hyp:1|))
(assert (!
  (<= (|fun.eval s14 Z| s262 s171) s119)
  :named |Local_Hyp:2|))
(assert (!
  (|set.in Z| s119 NAT)
  :named |Define:ctx:102|))
(assert (!
  (|set.in Z| s119 (|interval| (* 1 s104) (* 5 s104)))
  :named |Define:ctx:103|))
(assert (!
  (|set.in Z| s104 (|interval| 1 365000))
  :named |Define:ctx:70|))
(assert (!
  (|set.in Z| s106 (|interval| 0 (* 240 s104)))
  :named |Define:ctx:73|))
(assert (!
  (|set.in Z| s107 (|interval| 0 (* 30 s104)))
  :named |Define:ctx:75|))
(assert (!
  (|set.in Z| s109 (|interval| 0 (* 60 s104)))
  :named |Define:ctx:79|))
(assert (!
  (|set.in Z| s110 (|interval| (* 5 s104) (* 30 s104)))
  :named |Define:ctx:81|))
(assert (!
  (|set.in Z| s111 (|interval| 5 (* 30 s104)))
  :named |Define:ctx:83|))
(assert (!
  (|set.in Z| s112 (|interval| (* 1 s104) (* 180 s104)))
  :named |Define:ctx:85|))
(assert (!
  (|set.in Z| s113 (|interval| (* 1 s104) (* 20 s104)))
  :named |Define:ctx:87|))
(assert (!
  (|set.in Z| s114 (|interval| (* 1 s104) (* 10 s104)))
  :named |Define:ctx:89|))
(assert (!
  (|set.in Z| s115 (|interval| (* 30 s104) (* 60 s104)))
  :named |Define:ctx:91|))
(assert (!
  (|set.in Z| s116 (|interval| (* 1 s104) (* 20 s104)))
  :named |Define:ctx:93|))
(assert (!
  (|set.in Z| s117 (|interval| (* 1 s104) (* 10 s104)))
  :named |Define:ctx:95|))
(assert (!
  (|set.in Z| s118 (|interval| (* 30 s104) (* 60 s104)))
  :named |Define:ctx:97|))
(assert (!
  (|set.in Z| s120 (|interval| (* 1 s104) (* 5 s104)))
  :named |Define:ctx:105|))
(assert (!
  (|set.in Z| s121 (|interval| (* 1 s104) (* 5 s104)))
  :named |Define:ctx:107|))
(assert (!
  (|set.in Z| s122 (|interval| (* 1 s104) (* 5 s104)))
  :named |Define:ctx:109|))
(assert (!
  (|set.in Z| s123 (|interval| (* 1 s104) (* 5 s104)))
  :named |Define:ctx:111|))
(assert (!
  (|set.in Z| s124 (|interval| (* 60 s104) (* 1800 s104)))
  :named |Define:ctx:113|))
(assert (!
  (|set.in Z| s106 NAT)
  :named |Define:ctx:72|))
(assert (!
  (|set.in Z| s107 NAT)
  :named |Define:ctx:74|))
(assert (!
  (|set.in Z| s109 NAT)
  :named |Define:ctx:78|))
(assert (!
  (|set.in Z| s110 NAT)
  :named |Define:ctx:80|))
(assert (!
  (|set.in Z| s111 NAT)
  :named |Define:ctx:82|))
(assert (!
  (|set.in Z| s112 NAT)
  :named |Define:ctx:84|))
(assert (!
  (|set.in Z| s113 NAT)
  :named |Define:ctx:86|))
(assert (!
  (|set.in Z| s114 NAT)
  :named |Define:ctx:88|))
(assert (!
  (|set.in Z| s115 NAT)
  :named |Define:ctx:90|))
(assert (!
  (|set.in Z| s116 NAT)
  :named |Define:ctx:92|))
(assert (!
  (|set.in Z| s117 NAT)
  :named |Define:ctx:94|))
(assert (!
  (|set.in Z| s118 NAT)
  :named |Define:ctx:96|))
(assert (!
  (<= s116 s113)
  :named |Define:ctx:98|))
(assert (!
  (<= s118 s115)
  :named |Define:ctx:99|))
(assert (!
  (<= (+ s113 s114) s115)
  :named |Define:ctx:100|))
(assert (!
  (<= (+ s116 s117) s118)
  :named |Define:ctx:101|))
(assert (!
  (|set.in Z| s120 NAT)
  :named |Define:ctx:104|))
(assert (!
  (|set.in Z| s121 NAT)
  :named |Define:ctx:106|))
(assert (!
  (|set.in Z| s122 NAT)
  :named |Define:ctx:108|))
(assert (!
  (|set.in Z| s123 NAT)
  :named |Define:ctx:110|))
(assert (!
  (|set.in Z| s124 NAT)
  :named |Define:ctx:112|))
(assert (!
  (<= s128 s111)
  :named |Define:ctx:118|))
(assert (!
  (|set.in Z| s128 NAT1)
  :named |Define:ctx:117|))
(assert (!
  (not
    (|set.in POW (s14 x Z)| s262 (|functions.partial s14 Z| (|rel.domain s14 Z| s262) (|rel.range s14 Z| s262))))
  :named |Goal|))
(check-sat)
(exit)
